9580
865
21783
555
32
1827
23312
0
3825
0
2358
0
192
350
0
84500
2705
0
0
4681
0
350607
2531
0
46
846
46
2429
253480
21562
0
50
79
70
17346
56
273
4292
356
169
6747
21513
368636
0
14793
5878
201
577
0
885
26
112
0
141
490
6818
34295
47
26
808
53702
116
1336
0
0
0
164
0
0
6472
0
24826
380
425266
1543
120
0
296655
62
0
107
3309
6182
0
0
559
0
157
746
0
63
49
74
0
8
487444
37
1403
2057
0
